p cnf 80 257
a 9 38 0
e 1 2 3 4 5 6 7 8 10 11 12 13 14 15 16 17 18 19 20 21 22 23 24 25 26 27 28 29 30 31 32 33 34 35 36 37 39 40 41 42 43 44 45 46 47 48 49 50 51 52 53 54 55 56 57 58 59 60 61 62 63 64 65 66 67 68 69 70 71 72 73 74 75 76 77 78 79 80 0
-5 3 0
-5 -4 0
-3 4 5 0
-5 6 -7 0
5 -6 -7 0
-5 -6 7 0
5 6 7 0
8 2 0
8 -7 0
-2 7 -8 0
9 -1 0
9 -8 0
1 8 -9 0
9 -10 -11 0
-9 10 -11 0
9 10 11 0
-9 -10 11 0
-11 4 -12 0
11 -4 -12 0
-11 -4 12 0
11 4 12 0
-4 13 -14 0
4 -13 -14 0
-4 -13 14 0
4 13 14 0
15 3 0
15 -4 0
-3 4 -15 0
16 8 0
16 -15 0
-8 15 -16 0
17 14 0
17 -16 0
-14 16 -17 0
-3 18 -19 0
3 -18 -19 0
-3 -18 19 0
3 18 19 0
20 14 0
20 11 0
-14 -11 -20 0
21 -2 0
21 5 0
2 -5 -21 0
22 21 0
22 -7 0
-21 7 -22 0
23 22 0
23 -1 0
-22 1 -23 0
24 -4 0
24 -2 0
4 2 -24 0
-10 24 -25 0
10 -24 -25 0
-10 -24 25 0
10 24 25 0
-26 -23 0
-26 -25 0
23 25 26 0
20 -26 -27 0
-20 26 -27 0
20 26 27 0
-20 -26 27 0
-28 4 0
-28 -8 0
-4 8 28 0
13 28 -29 0
-13 -28 -29 0
13 -28 29 0
-13 28 29 0
-30 27 0
-30 29 0
-27 -29 30 0
-19 30 -31 0
19 -30 -31 0
-19 -30 31 0
19 30 31 0
33 6 0
33 5 0
-6 -5 -33 0
34 32 0
34 -33 0
-32 33 -34 0
35 5 0
35 -34 0
-5 34 -35 0
36 31 0
36 -35 0
-31 35 -36 0
-1 3 -37 0
1 -3 -37 0
-1 -3 37 0
1 3 37 0
-28 -37 -38 0
28 37 -38 0
-28 37 38 0
28 -37 38 0
39 -20 0
39 38 0
20 -38 -39 0
-40 -36 0
-40 -39 0
36 39 40 0
41 34 0
41 2 0
-34 -2 -41 0
42 -41 0
42 -8 0
41 8 -42 0
-43 40 0
-43 42 0
-40 -42 43 0
-17 43 -44 0
17 -43 -44 0
-17 -43 44 0
17 43 44 0
-45 12 0
-45 44 0
-12 -44 45 0
-46 -34 0
-46 14 0
34 -14 46 0
46 -47 0
-46 -47 0
-48 -25 0
-48 -16 0
25 16 48 0
-49 15 0
-49 48 0
-15 -48 49 0
-50 46 0
-50 2 0
-46 -2 50 0
-51 50 0
-51 -6 0
-50 6 51 0
52 49 0
52 -51 0
-49 51 -52 0
53 47 0
53 52 0
-47 -52 -53 0
54 -45 0
54 53 0
45 -53 -54 0
-46 11 -55 0
46 -11 -55 0
-46 -11 55 0
46 11 55 0
56 3 0
56 -24 0
-3 24 -56 0
-57 -56 0
-57 46 0
56 -46 57 0
58 -57 0
58 -41 0
57 41 -58 0
-33 58 -59 0
33 -58 -59 0
-33 -58 59 0
33 58 59 0
-11 57 -60 0
11 -57 -60 0
-11 -57 60 0
11 57 60 0
61 -59 0
61 60 0
59 -60 -61 0
8 -13 -62 0
-8 13 -62 0
8 13 62 0
-8 -13 62 0
61 62 -63 0
-61 -62 -63 0
61 -62 63 0
-61 62 63 0
-64 55 0
-64 -63 0
-55 63 64 0
-65 -54 0
-65 64 0
54 -64 65 0
-15 -32 -66 0
15 32 -66 0
-15 32 66 0
15 -32 66 0
-33 -50 -67 0
33 50 -67 0
-33 50 67 0
33 -50 67 0
68 -66 0
68 67 0
66 -67 -68 0
-69 56 0
-69 10 0
-56 -10 69 0
-70 3 0
-70 -15 0
-3 15 70 0
69 -70 -71 0
-69 70 -71 0
69 70 71 0
-69 -70 71 0
3 -72 -73 0
-3 72 -73 0
3 72 73 0
-3 -72 73 0
-74 1 0
-74 -73 0
-1 73 74 0
75 20 0
75 15 0
-20 -15 -75 0
76 75 0
76 -34 0
-75 34 -76 0
77 74 0
77 76 0
-74 -76 -77 0
71 77 -78 0
-71 -77 -78 0
71 -77 78 0
-71 77 78 0
-68 -78 -79 0
68 78 -79 0
-68 78 79 0
68 -78 79 0
-65 79 -80 0
65 -79 -80 0
-65 -79 80 0
65 79 80 0
-71 -47 -57 0
-76 37 38 40 -1 18 45 0
-73 -8 23 0
16 -51 -40 -45 33 -25 0
76 8 10 -42 40 0
28 22 -70 -46 -23 21 -42 0
80 -44 -73 35 0
37 30 -69 0
78 -20 -53 -55 0
6 32 -40 -13 0
59 -18 -68 0
4 -36 78 -43 50 74 0
-57 -35 -44 17 5 -43 0
-6 1 59 -36 0
54 -72 -8 -1 0
38 -24 79 11 -27 -44 -29 0
-29 -77 10 20 0
-62 63 45 35 7 61 0
-9 -20 -32 -24 -21 0
-52 32 -35 -66 0
6 71 39 0
12 70 -64 58 -71 40 29 -32 0
9 54 22 19 32 -65 0
80 0
